language ESSENCE' 1.0
$ loaded file: carseqdata/csplib-instance-29
letting numcars=200
letting numclasses=25
letting numoptions=5
letting optMax=[1, 2, 1, 2, 1]
letting windowSize=[2, 3, 3, 5, 5]
letting numberPerClass=[1, 1, 1, 2, 64, 4, 4, 5, 3, 2, 1, 4, 1, 26, 16, 14, 25, 4, 1, 4, 4, 4, 1, 6, 2]
letting optionsRequired=[[0, 0, 1, 1, 1], [1, 1, 1, 0, 1], [0, 1, 1, 1, 0], [0, 1, 1, 0, 1], [0, 1, 0, 0, 0], [0, 1, 0, 0, 1], [0, 0, 0, 1, 1], [1, 0, 1, 1, 0], [1, 0, 0, 0, 1], [1, 1, 1, 0, 0], [1, 1, 0, 1, 0], [1, 0, 1, 0, 0], [0, 1, 0, 1, 1], [1, 0, 0, 0, 0], [1, 1, 0, 0, 0], [0, 0, 1, 0, 0], [0, 0, 0, 1, 0], [0, 1, 1, 0, 0], [1, 0, 0, 1, 1], [0, 0, 1, 1, 0], [1, 0, 0, 1, 0], [0, 1, 0, 1, 0], [0, 0, 1, 0, 1], [0, 0, 0, 0, 1], [1, 1, 1, 0, 0]]
